networks/zoo_60_720/zoo_60_720.txt
Number of groups: 30
Flow 16: {1 23} {23 53} 
Flow 24: {8 5} {5 35} 
Flow 33: {2 23} {23 17} {17 47} 
Flow 55: {3 23} {23 22} {22 52} 
Flow 65: {4 23} {23 3} {3 33} 
Flow 95: {5 8} {8 7} {7 37} 
Flow 125: {6 9} {9 10} {10 40} 
Flow 169: {7 8} {8 23} {23 25} {25 29} {29 59} 
Flow 232: {10 9} {9 13} {13 43} 
Flow 258: {11 9} {9 19} {19 49} 
Flow 286: {12 23} {23 24} {24 54} 
Flow 303: {13 9} {9 15} {15 45} 
Flow 325: {14 9} {9 39} 
Flow 342: {15 9} {9 23} {23 2} {2 32} 
Flow 381: {16 9} {9 20} {20 50} 
Flow 399: {17 23} {23 8} {8 38} 
Flow 432: {18 23} {23 9} {9 16} {16 46} 
Flow 456: {19 9} {9 11} {11 41} 
Flow 478: {20 9} {9 6} {6 36} 
Flow 519: {21 25} {25 27} {27 57} 
Flow 522: {22 23} {23 1} {1 31} 
Flow 533: {23 12} {12 42} 
Flow 563: {9 14} {14 44} 
Flow 582: {24 23} {23 4} {4 34} 
Flow 644: {26 25} {25 23} {23 18} {18 48} 
Flow 672: {27 25} {25 26} {26 56} 
Flow 681: {25 55} 
Flow 682: {28 25} {25 30} {30 60} 
Flow 691: {29 25} {25 21} {21 51} 
Flow 720: {30 25} {25 28} {28 58} 
Time taken running everything: 7 seconds
