networks/zoo_60_720/zoo_60_720.sol
<?xml version = "1.0" encoding="UTF-8" standalone="yes"?>
<CPLEXSolution version="1.2">
 <header
   problemName="networks/zoo_60_720/zoo_60_720.lp"
   solutionName="incumbent"
   solutionIndex="-1"
   objectiveValue="30"
   solutionTypeValue="3"
   solutionTypeString="primal"
   solutionStatusValue="101"
   solutionStatusString="integer optimal solution"
   solutionMethodString="mip"
   primalFeasible="1"
   dualFeasible="1"
   MIPNodes="483"
   MIPIterations="13042"
   writeLevel="3"/>
 <quality
   epInt="1.0000000000000001e-05"
   epRHS="9.9999999999999995e-07"
   maxIntInfeas="0"
   maxPrimalInfeas="0"
   maxX="4"
   maxSlack="10"/>
 <variables>
  <variable name="Y(12,18)" index="677" value="1"/>
  <variable name="Y(27,8)" index="1567" value="1"/>
  <variable name="Y(42,27)" index="2486" value="1"/>
  <variable name="Y(55,22)" index="3261" value="1"/>
  <variable name="Y(65,3)" index="3842" value="1"/>
  <variable name="Y(95,7)" index="5646" value="1"/>
  <variable name="Y(126,11)" index="7510" value="1"/>
  <variable name="Y(169,29)" index="10108" value="1"/>
  <variable name="Y(181,12)" index="10811" value="1"/>
  <variable name="Y(229,6)" index="13685" value="1"/>
  <variable name="Y(255,16)" index="15255" value="1"/>
  <variable name="Y(286,24)" index="17123" value="1"/>
  <variable name="Y(303,15)" index="18134" value="1"/>
  <variable name="Y(327,13)" index="19572" value="1"/>
  <variable name="Y(354,19)" index="21198" value="1"/>
  <variable name="Y(384,23)" index="23002" value="1"/>
  <variable name="Y(393,2)" index="23521" value="1"/>
  <variable name="Y(419,1)" index="25080" value="1"/>
  <variable name="Y(462,20)" index="27679" value="1"/>
  <variable name="Y(482,10)" index="28869" value="1"/>
  <variable name="Y(518,26)" index="31045" value="1"/>
  <variable name="Y(525,4)" index="31443" value="1"/>
  <variable name="Y(563,14)" index="33733" value="1"/>
  <variable name="Y(593,17)" index="35536" value="1"/>
  <variable name="Y(653,30)" index="39149" value="1"/>
  <variable name="Y(667,21)" index="39980" value="1"/>
  <variable name="Y(675,5)" index="40444" value="1"/>
  <variable name="Y(681,25)" index="40824" value="1"/>
  <variable name="Y(685,9)" index="41048" value="1"/>
  <variable name="Y(720,28)" index="43167" value="1"/>
  <variable name="X(1,23,12)" index="43211" value="1"/>
  <variable name="X(1,31,419)" index="44338" value="1"/>
  <variable name="X(2,23,27)" index="44666" value="1"/>
  <variable name="X(2,32,393)" index="45752" value="1"/>
  <variable name="X(3,23,55)" index="46134" value="1"/>
  <variable name="X(3,33,65)" index="46864" value="1"/>
  <variable name="X(4,23,65)" index="47584" value="1"/>
  <variable name="X(4,34,525)" index="48764" value="1"/>
  <variable name="X(5,8,95)" index="49054" value="1"/>
  <variable name="X(5,35,675)" index="50354" value="1"/>
  <variable name="X(6,9,126)" index="50525" value="1"/>
  <variable name="X(6,36,229)" index="51348" value="1"/>
  <variable name="X(7,8,169)" index="52008" value="1"/>
  <variable name="X(7,37,95)" index="52654" value="1"/>
  <variable name="X(8,5,675)" index="53954" value="1"/>
  <variable name="X(8,7,95)" index="54094" value="1"/>
  <variable name="X(8,23,169)" index="54888" value="1"/>
  <variable name="X(8,38,27)" index="55466" value="1"/>
  <variable name="X(9,6,229)" index="56388" value="1"/>
  <variable name="X(9,10,482)" index="57361" value="1"/>
  <variable name="X(9,11,126)" index="57725" value="1"/>
  <variable name="X(9,13,327)" index="58646" value="1"/>
  <variable name="X(9,14,563)" index="59602" value="1"/>
  <variable name="X(9,15,303)" index="60062" value="1"/>
  <variable name="X(9,16,255)" index="60734" value="1"/>
  <variable name="X(9,19,354)" index="61553" value="1"/>
  <variable name="X(9,20,462)" index="62381" value="1"/>
  <variable name="X(9,23,384)" index="63023" value="1"/>
  <variable name="X(9,39,685)" index="64044" value="1"/>
  <variable name="X(10,9,229)" index="64308" value="1"/>
  <variable name="X(10,40,482)" index="65281" value="1"/>
  <variable name="X(11,9,255)" index="65774" value="1"/>
  <variable name="X(11,41,126)" index="66365" value="1"/>
  <variable name="X(12,23,286)" index="67245" value="1"/>
  <variable name="X(12,42,181)" index="67860" value="1"/>
  <variable name="X(13,9,303)" index="68702" value="1"/>
  <variable name="X(13,43,327)" index="69446" value="1"/>
  <variable name="X(14,9,327)" index="70166" value="1"/>
  <variable name="X(14,44,563)" index="71122" value="1"/>
  <variable name="X(15,9,354)" index="71633" value="1"/>
  <variable name="X(15,45,303)" index="72302" value="1"/>
  <variable name="X(16,9,384)" index="73103" value="1"/>
  <variable name="X(16,46,255)" index="73694" value="1"/>
  <variable name="X(17,23,393)" index="74552" value="1"/>
  <variable name="X(17,47,593)" index="75472" value="1"/>
  <variable name="X(18,23,419)" index="76018" value="1"/>
  <variable name="X(18,48,12)" index="76331" value="1"/>
  <variable name="X(19,9,462)" index="77501" value="1"/>
  <variable name="X(19,49,354)" index="78113" value="1"/>
  <variable name="X(20,9,482)" index="78961" value="1"/>
  <variable name="X(20,50,462)" index="79661" value="1"/>
  <variable name="X(21,25,518)" index="80437" value="1"/>
  <variable name="X(21,51,667)" index="81306" value="1"/>
  <variable name="X(22,23,525)" index="81884" value="1"/>
  <variable name="X(22,52,55)" index="82134" value="1"/>
  <variable name="X(23,1,419)" index="83218" value="1"/>
  <variable name="X(23,2,393)" index="83912" value="1"/>
  <variable name="X(23,3,65)" index="84304" value="1"/>
  <variable name="X(23,4,525)" index="85484" value="1"/>
  <variable name="X(23,8,27)" index="85706" value="1"/>
  <variable name="X(23,9,685)" index="87084" value="1"/>
  <variable name="X(23,12,181)" index="87300" value="1"/>
  <variable name="X(23,17,593)" index="88432" value="1"/>
  <variable name="X(23,18,12)" index="88571" value="1"/>
  <variable name="X(23,22,55)" index="89334" value="1"/>
  <variable name="X(23,24,286)" index="90285" value="1"/>
  <variable name="X(23,25,169)" index="90888" value="1"/>
  <variable name="X(23,53,384)" index="91823" value="1"/>
  <variable name="X(24,23,593)" index="92752" value="1"/>
  <variable name="X(24,54,286)" index="93165" value="1"/>
  <variable name="X(25,21,667)" index="94266" value="1"/>
  <variable name="X(25,23,685)" index="95004" value="1"/>
  <variable name="X(25,26,518)" index="95557" value="1"/>
  <variable name="X(25,27,42)" index="95801" value="1"/>
  <variable name="X(25,28,720)" index="97199" value="1"/>
  <variable name="X(25,29,169)" index="97368" value="1"/>
  <variable name="X(25,30,653)" index="98572" value="1"/>
  <variable name="X(25,55,681)" index="99320" value="1"/>
  <variable name="X(26,25,653)" index="100012" value="1"/>
  <variable name="X(26,56,518)" index="100597" value="1"/>
  <variable name="X(27,25,667)" index="101466" value="1"/>
  <variable name="X(27,57,42)" index="101561" value="1"/>
  <variable name="X(28,25,681)" index="102920" value="1"/>
  <variable name="X(28,58,720)" index="103679" value="1"/>
  <variable name="X(29,25,685)" index="104364" value="1"/>
  <variable name="X(29,59,169)" index="104568" value="1"/>
  <variable name="X(30,25,720)" index="105839" value="1"/>
  <variable name="X(30,60,653)" index="106492" value="1"/>
  <variable name="C(12,23)" index="106601" value="1"/>
  <variable name="C(12,18)" index="106602" value="2"/>
  <variable name="C(27,23)" index="106654" value="1"/>
  <variable name="C(27,8)" index="106655" value="2"/>
  <variable name="C(42,27)" index="106707" value="1"/>
  <variable name="C(55,23)" index="106754" value="1"/>
  <variable name="C(55,22)" index="106755" value="2"/>
  <variable name="C(65,23)" index="106787" value="1"/>
  <variable name="C(65,3)" index="106788" value="2"/>
  <variable name="C(95,8)" index="106898" value="1"/>
  <variable name="C(95,7)" index="106899" value="2"/>
  <variable name="C(126,9)" index="107030" value="1"/>
  <variable name="C(126,11)" index="107031" value="2"/>
  <variable name="C(169,8)" index="107209" value="1"/>
  <variable name="C(169,23)" index="107210" value="2"/>
  <variable name="C(169,25)" index="107211" value="3"/>
  <variable name="C(169,29)" index="107212" value="4"/>
  <variable name="C(181,12)" index="107251" value="1"/>
  <variable name="C(229,9)" index="107406" value="1"/>
  <variable name="C(229,6)" index="107407" value="2"/>
  <variable name="C(255,9)" index="107506" value="1"/>
  <variable name="C(255,16)" index="107507" value="2"/>
  <variable name="C(286,23)" index="107624" value="1"/>
  <variable name="C(286,24)" index="107625" value="2"/>
  <variable name="C(303,9)" index="107687" value="1"/>
  <variable name="C(303,15)" index="107688" value="2"/>
  <variable name="C(327,9)" index="107782" value="1"/>
  <variable name="C(327,13)" index="107783" value="2"/>
  <variable name="C(354,9)" index="107886" value="1"/>
  <variable name="C(354,19)" index="107887" value="2"/>
  <variable name="C(384,9)" index="108004" value="1"/>
  <variable name="C(384,23)" index="108005" value="2"/>
  <variable name="C(393,23)" index="108043" value="1"/>
  <variable name="C(393,2)" index="108044" value="2"/>
  <variable name="C(419,23)" index="108136" value="1"/>
  <variable name="C(419,1)" index="108137" value="2"/>
  <variable name="C(462,9)" index="108290" value="1"/>
  <variable name="C(462,20)" index="108291" value="2"/>
  <variable name="C(482,9)" index="108373" value="1"/>
  <variable name="C(482,10)" index="108374" value="2"/>
  <variable name="C(518,25)" index="108521" value="1"/>
  <variable name="C(518,26)" index="108522" value="2"/>
  <variable name="C(525,23)" index="108542" value="1"/>
  <variable name="C(525,4)" index="108543" value="2"/>
  <variable name="C(563,14)" index="108665" value="1"/>
  <variable name="C(593,23)" index="108757" value="1"/>
  <variable name="C(593,17)" index="108758" value="2"/>
  <variable name="C(653,25)" index="108967" value="1"/>
  <variable name="C(653,30)" index="108968" value="2"/>
  <variable name="C(667,25)" index="109030" value="1"/>
  <variable name="C(667,21)" index="109031" value="2"/>
  <variable name="C(675,5)" index="109058" value="1"/>
  <variable name="C(681,28)" index="109078" value="3"/>
  <variable name="C(681,25)" index="109079" value="4"/>
  <variable name="C(685,25)" index="109094" value="1"/>
  <variable name="C(685,23)" index="109095" value="2"/>
  <variable name="C(685,9)" index="109096" value="3"/>
  <variable name="C(720,30)" index="109231" value="2"/>
  <variable name="C(720,25)" index="109232" value="3"/>
  <variable name="C(720,28)" index="109233" value="4"/>
 </variables>
</CPLEXSolution>
